p cnf 11 53
1 2 0
3 4 0
7 6 5 0
8 9 0
10 11 0
-5 -10 -8 -3 -1 0
-6 -10 -8 -3 -1 0
-7 -10 -8 -3 -1 0
-6 -11 -8 -3 -1 0
-7 -11 -8 -3 -1 0
-5 -11 -8 -3 -1 0
-6 -11 -9 -3 -1 0
-7 -11 -9 -3 -1 0
-5 -11 -9 -3 -1 0
-7 -10 -9 -3 -1 0
-5 -10 -9 -3 -1 0
-6 -10 -9 -3 -1 0
-7 -11 -9 -4 -1 0
-5 -9 -11 -4 -1 0
-6 -9 -11 -4 -1 0
-5 -8 -11 -4 -1 0
-6 -8 -11 -4 -1 0
-7 -8 -11 -4 -1 0
-5 -8 -10 -4 -1 0
-6 -8 -10 -4 -1 0
-7 -8 -10 -4 -1 0
-6 -9 -10 -4 -1 0
-7 -9 -10 -4 -1 0
-5 -9 -10 -4 -1 0
-6 -10 -9 -4 -2 0
-7 -4 -10 -9 -2 0
-5 -4 -10 -9 -2 0
-7 -3 -10 -9 -2 0
-5 -3 -9 -10 -2 0
-6 -3 -9 -10 -2 0
-7 -3 -8 -10 -2 0
-5 -3 -8 -10 -2 0
-6 -3 -8 -10 -2 0
-5 -8 -4 -10 -2 0
-6 -8 -4 -10 -2 0
-7 -8 -4 -10 -2 0
-5 -9 -3 -11 -2 0
-6 -9 -3 -11 -2 0
-7 -9 -3 -11 -2 0
-6 -8 -3 -11 -2 0
-7 -8 -3 -11 -2 0
-5 -8 -3 -11 -2 0
-6 -8 -4 -11 -2 0
-7 -8 -4 -11 -2 0
-5 -8 -4 -11 -2 0
-7 -9 -4 -11 -2 0
-5 -9 -4 -11 -2 0
-6 -9 -4 -11 -2 0